(set-logic HORN)
(declare-fun inv ((_ BitVec 64) ) Bool)
(assert (forall ((c (_ BitVec 64))) 
       (=> ( = c (_ bv0 64) ) (inv c))))
(assert (forall ((c (_ BitVec 64)) (c! (_ BitVec 64))) 
       (=> (and (inv c) ( or ( and ( not ( = c (_ bv4 64) ) ) ( = c! ( bvadd c (_ bv1 64) ) ) ) ( and ( = c (_ bv4 64) ) ( = c! (_ bv1 64) ) ) )) (inv c!))))
(assert (forall ((c (_ BitVec 64))) 
       (=> (inv c) ( not ( and ( not ( = c (_ bv4 64) ) ) ( or ( bvslt c (_ bv0 64) ) ( bvsgt c (_ bv4 64) ) ) ) ))))
(check-sat)
